57 52 9 34 27 72 92 40 12 39 77 70 54 99 22 36 80 63 98 14 5 28 6 49 90 18 37 11 79 16 60 71 50 32 26 46 85 2 64 30 7 86 19 53 58 25 31 38 24 43 61 87 10 33 15 66 94 42 76 13 97 84 21 51 68 17 3 81 20 45 44 69 67 41 88 93 48 1 65 96 8 35 23 4 74 73 47 83 91 82 78 0 62 59 29 95 89 55 75 56 

